dates = {'2021-11-04','2021-11-05','2021-11-06','2021-11-07','2021-11-08','2021-11-09','2021-11-10','2021-11-11','2021-11-12','2021-11-13'};

daysOfWeek = [Thursday,Friday,Saturday,Sunday,Monday,Tuesday,Wednesday,Thursday,Friday,Saturday];

% For this week, how many people will be here.
numPeople = [52,59,44,44,54,51,51,51,51,51];

% Physical workers need 50 to 100 % more nutrients per day.
numPhysicalWorkers = [20.5,23.5,23.5,22.5,29.0,28.0,28.0,28.0,28.0,28.0];

% Males need +25% more nutrients per day.
numMen = [46,50,50,36,42,41,38,38,38,38];

% Num people who do not eat categories. contains = {none, meat, milk, gluten, egg, nut, seed, sugars}
numRefusals = [| 0,0,2,0,2,0,0,0 | 0,5,6,0,5,0,1,1 | 0,0,0,0,0,0,1,0 | 0,0,0,0,0,0,1,0 | 0,0,0,0,1,1,2,0 | 0,0,0,4,0,0,0,3 | 0,0,0,4,0,0,0,3 | 0,0,0,4,0,0,0,3 | 0,0,0,4,0,0,0,3 | 0,0,0,4,0,0,0,3 |];

